CMD:
./solvers/bin/cadical --plain --no-reduce -t 1600 ./data/cnfs//rast-p21/rast-p21.82.cnf

c --- [ banner ] -------------------------------------------------------------
c 
c CaDiCaL SAT Solver
c Copyright (c) 2016-2024
c A. Biere, M. Fleury, N. Froleyks, K. Fazekas, F. Pollitt, T. Faller
c JKU Linz, University of Freiburg, TU Wien
c 
c Version 2.1.3 5296d3d2a9bf48c154ab2acb5e44625776d821bf
c g++ (Gentoo 12.3.1_p20230526 p2) 12.3.1 20230526 -Wall -Wextra -O3 -DNDEBUG
c Sat Aug 9 07:26:21 PDT 2025 Linux cedar2.int.cedar.computecanada.ca 5.14.0-362.24.2.el9_3.x86_64 x86_64
c 
c --- [ limit ] --------------------------------------------------------------
c 
c setting time limit to 1600 seconds real time (due to '-t 1600')
c 
c --- [ parsing input ] ------------------------------------------------------
c 
c reading DIMACS file from './data/cnfs//rast-p21/rast-p21.82.cnf'
c opening file to read './data/cnfs//rast-p21/rast-p21.82.cnf'
c found 'p cnf 4489558 13383097' header
c parsed 13383097 clauses in 2.12 seconds process time
c 
c --- [ options ] ------------------------------------------------------------
c 
c   --compact=false                (different from default 'true')
c   --decompose=false              (different from default 'true')
c   --deduplicate=false            (different from default 'true')
c   --elim=false                   (different from default 'true')
c   --probe=false                  (different from default 'true')
c   --reduce=false                 (different from default 'true')
c   --subsume=false                (different from default 'true')
c   --ternary=false                (different from default 'true')
c   --transred=false               (different from default 'true')
c   --vivify=false                 (different from default 'true')
c 
c --- [ solving ] ------------------------------------------------------------
c 
c time measured in process time since initialization
c 
c  seconds    reductions  redundant   irredundant
c          MB     restarts       trail          variables
c            level   conflicts       glue             remaining
c 
c *  2.12 1974  0 0   0    0    0  0% 0 12971285 4203625 94%
c {  3.05 2026  0 0   0    0    0  0% 0 12971285 4203625 94%
c i  3.12 2026 499 0   0    4    2 10% 2 12971285 4203622 94%
c i  3.12 2026 516 0   0    5    2 10% 1 12971285 4203005 94%
c i  3.14 2026 567 0   0   23   18 12% 1 12971285 4202981 94%
c i  3.15 2026 570 0   0   31   25 13% 1 12971285 4202973 94%
c i  3.15 2026 570 0   0   33   25 13% 1 12971285 4202950 94%
c i  3.15 2026 570 0   0   35   26 13% 1 12971285 4202940 94%
c i  3.15 2026 571 0   0   37   27 12% 1 12971285 4202930 94%
c i  3.15 2026 571 0   0   39   28 12% 1 12971285 4202920 94%
c i  3.15 2026 571 0   0   41   29 12% 1 12971285 4202910 94%
c i  3.15 2026 571 0   0   43   30 12% 1 12971285 4202900 94%
c i  3.15 2026 571 0   0   45   31 12% 1 12971285 4202890 94%
c i  3.15 2026 571 0   0   47   32 12% 1 12971285 4202880 94%
c i  3.16 2026 571 0   0   49   33 12% 1 12971285 4202870 94%
c i  3.16 2026 571 0   0   51   34 12% 1 12971285 4202860 94%
c i  3.16 2026 571 0   0   53   35 12% 1 12971285 4202850 94%
c i  3.16 2026 570 0   0   55   36 12% 1 12971285 4202840 94%
c i  3.16 2026 570 0   0   57   37 12% 1 12971285 4202830 94%
c i  3.16 2026 570 0   0   59   38 12% 1 12971285 4202820 94%
c 
c  seconds     reductions  redundant   irredundant
c          MB      restarts       trail          variables
c             level   conflicts       glue             remaining
c 
c i  3.16 2026 570 0   0   61   39 12% 1 12971285 4202810 94%
c i  3.16 2026 569 0   0   63   40 12% 1 12971285 4202800 94%
c i  3.16 2026 569 0   0   65   41 12% 1 12971285 4202790 94%
c i  3.16 2026 569 0   0   67   42 12% 1 12971285 4202780 94%
c i  3.16 2026 569 0   0   69   43 12% 1 12971285 4202770 94%
c i  3.17 2026 568 0   0   71   44 12% 1 12971285 4202760 94%
c i  3.17 2026 568 0   0   73   45 12% 1 12971285 4202750 94%
c i  3.17 2026 568 0   0   75   46 12% 1 12971285 4202740 94%
c i  3.17 2026 567 0   0   77   47 12% 1 12971285 4202730 94%
c i  3.17 2026 567 0   0   79   48 12% 1 12971285 4202720 94%
c i  3.17 2026 567 0   0   81   49 12% 1 12971285 4202710 94%
c i  3.17 2026 566 0   0   83   50 12% 1 12971285 4202700 94%
c i  3.17 2026 566 0   0   85   51 12% 1 12971285 4202690 94%
c i  3.17 2026 566 0   0   87   52 12% 1 12971285 4202680 94%
c i  3.17 2026 565 0   0   89   53 12% 1 12971285 4202670 94%
c i  3.18 2026 565 0   0   91   54 12% 1 12971285 4202660 94%
c i  3.18 2026 564 0   0   93   55 12% 1 12971285 4202650 94%
c i  3.18 2026 564 0   0   95   56 12% 1 12971285 4202640 94%
c i  3.18 2026 564 0   0   97   57 12% 1 12971285 4202630 94%
c i  3.18 2026 563 0   0   99   58 12% 1 12971285 4202620 94%
c 
c  seconds     reductions  redundant   irredundant
c          MB      restarts       trail          variables
c             level   conflicts       glue             remaining
c 
c i  3.18 2026 563 0   0  101   59 12% 1 12971285 4202610 94%
c i  3.18 2026 562 0   0  103   60 11% 1 12971285 4202600 94%
c i  3.18 2026 562 0   0  105   61 11% 1 12971285 4202590 94%
c i  3.18 2026 562 0   0  107   62 11% 1 12971285 4202580 94%
... skipped 7 lines ...
c i  3.19 2026 558 0   0  123   70 11% 1 12971285 4202500 94%
c i  3.19 2026 558 0   0  125   71 11% 1 12971285 4202490 94%
c i  3.19 2026 557 0   0  127   72 11% 1 12971285 4202480 94%
c i  3.19 2026 557 0   0  129   73 11% 1 12971285 4202470 94%
c i  3.19 2026 556 0   0  131   74 11% 1 12971285 4202460 94%
c i  3.19 2026 556 0   0  133   75 11% 1 12971285 4202450 94%
c i  3.19 2026 555 0   0  135   76 11% 1 12971285 4202440 94%
c i  3.19 2026 555 0   0  137   77 11% 1 12971285 4202430 94%
c i  3.19 2026 555 0   0  139   78 11% 1 12971285 4202420 94%
c 
c  seconds     reductions  redundant   irredundant
c          MB      restarts       trail          variables
c             level   conflicts       glue             remaining
c 
c i  3.20 2026 554 0   0  141   79 11% 1 12971285 4202410 94%
c i  3.20 2026 554 0   0  143   80 11% 1 12971285 4202400 94%
c i  3.20 2026 553 0   0  145   81 11% 1 12971285 4202390 94%
c i  3.20 2026 553 0   0  147   82 11% 1 12971285 4202380 94%
c i  3.20 2026 552 0   0  149   83 11% 1 12971285 4202370 94%
c i  3.20 2026 552 0   0  151   84 11% 1 12971285 4202360 94%
c i  3.20 2026 551 0   0  153   85 11% 1 12971285 4202350 94%
c i  3.20 2026 551 0   0  155   86 10% 1 12971285 4202340 94%
c i  3.20 2026 550 0   0  157   87 10% 1 12971285 4202330 94%
c i  3.20 2026 550 0   0  159   88 10% 1 12971285 4202320 94%
c i  3.20 2026 550 0   0  161   89 10% 1 12971285 4202310 94%
c i  3.20 2026 549 0   0  163   90 10% 1 12971285 4202300 94%
c i  3.20 2026 549 0   0  165   91 10% 1 12971285 4202290 94%
c i  3.20 2026 548 0   0  167   92 10% 1 12971285 4202280 94%
c i  3.20 2026 548 0   0  169   93 10% 1 12971285 4202270 94%
c i  3.22 2026 547 0   0  172   94 10% 1 12971285 4202260 94%
c i  4.85 2026 378 0  24  331  231 12% 3 12971285 4202259 94%
c i  4.85 2026 378 0  25  332  231 13% 3 12971285 4202258 94%
c i  5.53 2026 382 0  27  339  237 14% 3 12971285 4202257 94%
c i  5.53 2026 385 0  27  340  237 14% 3 12971285 4202256 94%
c 
c  seconds     reductions  redundant   irredundant
c          MB      restarts       trail          variables
c             level   conflicts       glue             remaining
c 
c i  6.67 2026 255 0  48  657  443 14% 3 12971285 4202231 94%
c i  6.67 2026 214 0  51  800  551 13% 3 12971285 4202206 94%
c }  6.67 2026 177 0  52 1001  739 12% 3 12971285 4202206 94%
c [  6.67 2026  0 0  52 1001  739  0% 0 12971285 4202206 94%
c O  7.65 2026 15021 0  52 1002  740 100% 1 12971285 4202206 94%
c i  7.73 2026 15037 0  52 1119  837 100% 3 12971285 4202203 94%
c i  7.73 2026 15036 0  52 1153  855 100% 3 12971285 4202094 94%
c ]  7.81 2026 15036 0  52 1155  855 100% 3 12971285 4201597 94%
c 0  7.81 2026 15036 0  52 1155  855 100% 3 12971285 4201597 94%
c 
c --- [ result ] -------------------------------------------------------------
c 
s UNSATISFIABLE
c 
c --- [ run-time profiling ] -------------------------------------------------
c 
c process time taken by individual solving procedures
c (percentage relative to process time for solving)
c 
c         5.69  100.00% search
c         3.62   63.64% unstable
c         2.12   37.20% parse
c         1.14   20.02% stable
c         0.93   16.34% lucky
c         0.00    0.00% simplify
c   =================================
c         5.69   72.88% solve
c 
c last line shows process time for solving
c (percentage relative to total process time)
c 
c --- [ statistics ] ---------------------------------------------------------
c 
c chronological:               699        60.52 %  of conflicts
c conflicts:                  1155       202.84    per second
c decisions:                 30856      5418.95    per second
c fixed:                    285396         6.36 %  of all variables
c learned:                    1062        91.95 %  per conflict
c learned_lits:               8565       100.00 %  learned literals
c minimized:                     0         0.00 %  learned literals
c shrunken:                   2428        28.35 %  learned literals
c minishrunken:                492         5.74 %  learned literals
c otfs:                          8         0.69 %  of conflict
c propagations:           39858708         7.00 M  per second
c rephased:                      1      1155.00    interval
c restarts:                     52        22.21    interval
c stabilizing:                   1        13.33 %  of conflicts
c subsumed:                    123         0.00 %  of all clauses
c strengthened:                  8         0.00 %  of all clauses
c 
c seconds are measured in process time for solving
c 
c --- [ resources ] ----------------------------------------------------------
c 
c total process time since initialization:         7.81    seconds
c total real time since initialization:            7.87    seconds
c maximum resident set size of process:         2025.17    MB
c 
c --- [ shutting down ] ------------------------------------------------------
c 
c exit 20
